127
0 2 7 40 53 50 12 106 55 59 
18 108 102 42 100 4 41 63 47 116 
124 14 121 17 104 66 5 76 24 107 
101 73 74 70 58 68 126 80 15 110 
61 35 23 38 54 37 52 44 119 46 
87 56 85 95 77 115 62 65 72 8 
21 114 10 79 103 67 82 93 105 118 
60 57 81 88 99 125 9 25 1 117 
69 96 30 109 75 123 112 3 27 28 
36 97 45 16 94 51 91 86 64 43 
120 34 29 92 39 49 48 31 32 71 
19 113 6 11 78 90 98 84 83 22 
122 13 33 111 26 89 20 
